1600 3200
1 2 1
1 41 5
2 3 2
2 42 1
3 4 3
3 43 2
4 5 5
4 44 2
5 6 4
5 45 5
6 7 1
6 46 3
7 8 4
7 47 5
8 9 1
8 48 3
9 10 4
9 49 5
10 11 5
10 50 1
11 12 2
11 51 3
12 13 1
12 52 2
13 14 4
13 53 5
14 15 3
14 54 1
15 16 2
15 55 4
16 17 4
16 56 5
17 18 3
17 57 2
18 19 3
18 58 3
19 20 2
19 59 3
20 21 4
20 60 5
21 22 4
21 61 4
22 23 3
22 62 4
23 24 4
23 63 1
24 25 2
24 64 3
25 26 4
25 65 1
26 27 1
26 66 4
27 28 3
27 67 1
28 29 1
28 68 2
29 30 5
29 69 5
30 31 2
30 70 2
31 32 1
31 71 1
32 33 1
32 72 5
33 34 3
33 73 3
34 35 2
34 74 1
35 36 5
35 75 5
36 37 3
36 76 4
37 38 4
37 77 5
38 39 2
38 78 1
39 40 3
39 79 3
40 80 2
41 42 5
41 81 5
42 43 2
42 82 5
43 44 2
43 83 4
44 45 2
44 84 5
45 46 3
45 85 4
46 47 3
46 86 2
47 48 2
47 87 1
48 49 2
48 88 2
49 50 3
49 89 4
50 51 2
50 90 4
51 52 2
51 91 4
52 53 1
52 92 4
53 54 4
53 93 1
54 55 3
54 94 4
55 56 4
55 95 3
56 57 5
56 96 1
57 58 1
57 97 4
58 59 4
58 98 3
59 60 1
59 99 2
60 61 3
60 100 4
61 62 2
61 101 3
62 63 1
62 102 3
63 64 5
63 103 3
64 65 4
64 104 1
65 66 2
65 105 5
66 67 2
66 106 2
67 68 4
67 107 4
68 69 2
68 108 4
69 70 2
69 109 3
70 71 3
70 110 1
71 72 1
71 111 4
72 73 2
72 112 2
73 74 3
73 113 4
74 75 2
74 114 5
75 76 2
75 115 1
76 77 5
76 116 1
77 78 1
77 117 1
78 79 1
78 118 2
79 80 3
79 119 5
80 120 1
81 82 1
81 121 5
82 83 4
82 122 2
83 84 5
83 123 4
84 85 3
84 124 4
85 86 3
85 125 1
86 87 3
86 126 2
87 88 5
87 127 3
88 89 3
88 128 2
89 90 4
89 129 1
90 91 5
90 130 5
91 92 4
91 131 3
92 93 4
92 132 2
93 94 4
93 133 4
94 95 4
94 134 2
95 96 4
95 135 2
96 97 4
96 136 5
97 98 3
97 137 3
98 99 4
98 138 4
99 100 3
99 139 3
100 101 5
100 140 5
101 102 4
101 141 2
102 103 1
102 142 4
103 104 2
103 143 1
104 105 4
104 144 5
105 106 1
105 145 1
106 107 1
106 146 2
107 108 4
107 147 5
108 109 1
108 148 2
109 110 4
109 149 1
110 111 4
110 150 1
111 112 1
111 151 2
112 113 2
112 152 2
113 114 5
113 153 5
114 115 2
114 154 5
115 116 2
115 155 2
116 117 4
116 156 4
117 118 3
117 157 1
118 119 5
118 158 1
119 120 1
119 159 2
120 160 3
121 122 2
121 161 2
122 123 2
122 162 4
123 124 1
123 163 5
124 125 5
124 164 3
125 126 5
125 165 5
126 127 4
126 166 3
127 128 5
127 167 4
128 129 4
128 168 4
129 130 4
129 169 2
130 131 1
130 170 3
131 132 1
131 171 4
132 133 5
132 172 5
133 134 3
133 173 4
134 135 4
134 174 1
135 136 5
135 175 3
136 137 5
136 176 2
137 138 5
137 177 5
138 139 4
138 178 5
139 140 3
139 179 4
140 141 5
140 180 4
141 142 5
141 181 4
142 143 1
142 182 1
143 144 3
143 183 4
144 145 4
144 184 4
145 146 5
145 185 3
146 147 4
146 186 4
147 148 4
147 187 1
148 149 2
148 188 4
149 150 4
149 189 3
150 151 4
150 190 1
151 152 4
151 191 5
152 153 2
152 192 1
153 154 2
153 193 4
154 155 4
154 194 2
155 156 3
155 195 1
156 157 4
156 196 2
157 158 3
157 197 3
158 159 1
158 198 5
159 160 4
159 199 3
160 200 4
161 162 2
161 201 5
162 163 1
162 202 1
163 164 5
163 203 3
164 165 3
164 204 4
165 166 1
165 205 3
166 167 2
166 206 3
167 168 5
167 207 3
168 169 5
168 208 4
169 170 4
169 209 4
170 171 3
170 210 3
171 172 1
171 211 2
172 173 3
172 212 5
173 174 3
173 213 4
174 175 3
174 214 4
175 176 1
175 215 4
176 177 3
176 216 1
177 178 2
177 217 1
178 179 2
178 218 3
179 180 5
179 219 1
180 181 4
180 220 2
181 182 1
181 221 5
182 183 1
182 222 4
183 184 1
183 223 5
184 185 3
184 224 1
185 186 3
185 225 2
186 187 1
186 226 2
187 188 1
187 227 3
188 189 4
188 228 2
189 190 2
189 229 5
190 191 4
190 230 2
191 192 1
191 231 1
192 193 4
192 232 1
193 194 4
193 233 5
194 195 4
194 234 3
195 196 3
195 235 5
196 197 1
196 236 2
197 198 2
197 237 2
198 199 4
198 238 2
199 200 5
199 239 3
200 240 3
201 202 3
201 241 1
202 203 2
202 242 3
203 204 2
203 243 3
204 205 3
204 244 2
205 206 2
205 245 5
206 207 1
206 246 3
207 208 5
207 247 3
208 209 5
208 248 1
209 210 3
209 249 5
210 211 5
210 250 1
211 212 1
211 251 1
212 213 2
212 252 5
213 214 2
213 253 1
214 215 5
214 254 4
215 216 4
215 255 2
216 217 5
216 256 2
217 218 2
217 257 1
218 219 4
218 258 4
219 220 5
219 259 4
220 221 2
220 260 2
221 222 2
221 261 5
222 223 5
222 262 4
223 224 3
223 263 5
224 225 1
224 264 4
225 226 1
225 265 1
226 227 4
226 266 2
227 228 2
227 267 3
228 229 3
228 268 4
229 230 1
229 269 2
230 231 1
230 270 5
231 232 5
231 271 5
232 233 5
232 272 2
233 234 3
233 273 3
234 235 1
234 274 2
235 236 3
235 275 3
236 237 2
236 276 4
237 238 2
237 277 1
238 239 1
238 278 3
239 240 5
239 279 1
240 280 4
241 242 2
241 281 1
242 243 5
242 282 4
243 244 2
243 283 1
244 245 1
244 284 2
245 246 5
245 285 1
246 247 3
246 286 1
247 248 5
247 287 1
248 249 4
248 288 4
249 250 1
249 289 5
250 251 4
250 290 2
251 252 3
251 291 5
252 253 4
252 292 1
253 254 4
253 293 3
254 255 4
254 294 1
255 256 4
255 295 2
256 257 3
256 296 2
257 258 1
257 297 1
258 259 2
258 298 3
259 260 2
259 299 4
260 261 5
260 300 1
261 262 5
261 301 1
262 263 4
262 302 2
263 264 4
263 303 5
264 265 1
264 304 4
265 266 1
265 305 2
266 267 1
266 306 1
267 268 2
267 307 5
268 269 5
268 308 2
269 270 3
269 309 1
270 271 5
270 310 1
271 272 1
271 311 2
272 273 2
272 312 3
273 274 3
273 313 2
274 275 5
274 314 5
275 276 5
275 315 4
276 277 3
276 316 3
277 278 3
277 317 4
278 279 5
278 318 2
279 280 4
279 319 3
280 320 5
281 282 3
281 321 3
282 283 1
282 322 4
283 284 2
283 323 3
284 285 4
284 324 1
285 286 3
285 325 5
286 287 3
286 326 5
287 288 1
287 327 5
288 289 4
288 328 1
289 290 4
289 329 5
290 291 5
290 330 3
291 292 4
291 331 1
292 293 1
292 332 3
293 294 5
293 333 4
294 295 5
294 334 3
295 296 5
295 335 5
296 297 3
296 336 5
297 298 5
297 337 5
298 299 1
298 338 4
299 300 4
299 339 2
300 301 5
300 340 3
301 302 1
301 341 5
302 303 3
302 342 1
303 304 3
303 343 5
304 305 1
304 344 4
305 306 2
305 345 1
306 307 5
306 346 1
307 308 1
307 347 2
308 309 4
308 348 3
309 310 5
309 349 2
310 311 4
310 350 2
311 312 1
311 351 1
312 313 1
312 352 1
313 314 3
313 353 4
314 315 1
314 354 5
315 316 1
315 355 2
316 317 1
316 356 5
317 318 3
317 357 2
318 319 4
318 358 1
319 320 3
319 359 3
320 360 4
321 322 4
321 361 4
322 323 3
322 362 2
323 324 2
323 363 3
324 325 3
324 364 2
325 326 1
325 365 3
326 327 2
326 366 4
327 328 4
327 367 3
328 329 4
328 368 1
329 330 2
329 369 5
330 331 1
330 370 4
331 332 3
331 371 3
332 333 5
332 372 3
333 334 2
333 373 5
334 335 5
334 374 1
335 336 4
335 375 4
336 337 1
336 376 4
337 338 3
337 377 2
338 339 4
338 378 1
339 340 5
339 379 4
340 341 2
340 380 3
341 342 3
341 381 1
342 343 2
342 382 1
343 344 4
343 383 2
344 345 3
344 384 2
345 346 3
345 385 3
346 347 5
346 386 3
347 348 4
347 387 1
348 349 4
348 388 1
349 350 1
349 389 5
350 351 4
350 390 1
351 352 4
351 391 5
352 353 2
352 392 1
353 354 5
353 393 3
354 355 2
354 394 4
355 356 4
355 395 4
356 357 4
356 396 5
357 358 1
357 397 3
358 359 3
358 398 2
359 360 1
359 399 5
360 400 1
361 362 3
361 401 4
362 363 2
362 402 1
363 364 3
363 403 5
364 365 3
364 404 4
365 366 4
365 405 4
366 367 5
366 406 4
367 368 3
367 407 3
368 369 2
368 408 1
369 370 5
369 409 4
370 371 3
370 410 3
371 372 4
371 411 3
372 373 4
372 412 4
373 374 1
373 413 2
374 375 5
374 414 5
375 376 4
375 415 4
376 377 5
376 416 5
377 378 5
377 417 3
378 379 5
378 418 1
379 380 4
379 419 4
380 381 4
380 420 1
381 382 1
381 421 4
382 383 4
382 422 2
383 384 2
383 423 5
384 385 5
384 424 1
385 386 1
385 425 3
386 387 2
386 426 5
387 388 4
387 427 1
388 389 5
388 428 2
389 390 2
389 429 5
390 391 4
390 430 5
391 392 2
391 431 2
392 393 1
392 432 4
393 394 3
393 433 3
394 395 2
394 434 1
395 396 4
395 435 5
396 397 4
396 436 3
397 398 4
397 437 4
398 399 5
398 438 3
399 400 1
399 439 2
400 440 4
401 402 1
401 441 3
402 403 1
402 442 5
403 404 1
403 443 4
404 405 2
404 444 2
405 406 2
405 445 4
406 407 3
406 446 2
407 408 4
407 447 2
408 409 1
408 448 2
409 410 2
409 449 5
410 411 5
410 450 2
411 412 5
411 451 2
412 413 4
412 452 4
413 414 5
413 453 1
414 415 4
414 454 4
415 416 1
415 455 4
416 417 5
416 456 5
417 418 4
417 457 2
418 419 3
418 458 5
419 420 3
419 459 3
420 421 5
420 460 5
421 422 2
421 461 5
422 423 3
422 462 3
423 424 2
423 463 3
424 425 2
424 464 1
425 426 2
425 465 5
426 427 2
426 466 5
427 428 1
427 467 5
428 429 4
428 468 5
429 430 2
429 469 3
430 431 4
430 470 3
431 432 2
431 471 3
432 433 5
432 472 4
433 434 3
433 473 2
434 435 5
434 474 1
435 436 2
435 475 4
436 437 1
436 476 3
437 438 2
437 477 2
438 439 5
438 478 4
439 440 5
439 479 2
440 480 5
441 442 1
441 481 4
442 443 4
442 482 5
443 444 2
443 483 4
444 445 2
444 484 3
445 446 4
445 485 1
446 447 5
446 486 4
447 448 2
447 487 3
448 449 1
448 488 3
449 450 4
449 489 1
450 451 4
450 490 5
451 452 2
451 491 3
452 453 3
452 492 2
453 454 4
453 493 4
454 455 3
454 494 5
455 456 1
455 495 2
456 457 2
456 496 2
457 458 1
457 497 1
458 459 4
458 498 2
459 460 1
459 499 2
460 461 5
460 500 4
461 462 2
461 501 4
462 463 4
462 502 2
463 464 5
463 503 4
464 465 1
464 504 5
465 466 2
465 505 5
466 467 4
466 506 5
467 468 5
467 507 4
468 469 4
468 508 4
469 470 1
469 509 1
470 471 2
470 510 5
471 472 2
471 511 1
472 473 1
472 512 4
473 474 1
473 513 1
474 475 2
474 514 2
475 476 2
475 515 3
476 477 4
476 516 1
477 478 2
477 517 4
478 479 2
478 518 1
479 480 4
479 519 2
480 520 5
481 482 4
481 521 5
482 483 3
482 522 3
483 484 4
483 523 1
484 485 4
484 524 3
485 486 2
485 525 3
486 487 5
486 526 2
487 488 2
487 527 5
488 489 2
488 528 2
489 490 5
489 529 4
490 491 1
490 530 1
491 492 2
491 531 2
492 493 1
492 532 4
493 494 3
493 533 2
494 495 4
494 534 5
495 496 4
495 535 2
496 497 2
496 536 3
497 498 4
497 537 3
498 499 5
498 538 1
499 500 1
499 539 2
500 501 3
500 540 2
501 502 1
501 541 3
502 503 4
502 542 3
503 504 1
503 543 5
504 505 2
504 544 4
505 506 4
505 545 3
506 507 4
506 546 2
507 508 4
507 547 4
508 509 4
508 548 4
509 510 2
509 549 2
510 511 3
510 550 1
511 512 4
511 551 4
512 513 1
512 552 1
513 514 2
513 553 1
514 515 2
514 554 2
515 516 3
515 555 1
516 517 4
516 556 2
517 518 5
517 557 3
518 519 1
518 558 4
519 520 4
519 559 1
520 560 3
521 522 4
521 561 5
522 523 5
522 562 3
523 524 3
523 563 4
524 525 1
524 564 4
525 526 4
525 565 1
526 527 3
526 566 5
527 528 3
527 567 5
528 529 4
528 568 4
529 530 4
529 569 5
530 531 5
530 570 5
531 532 1
531 571 1
532 533 4
532 572 3
533 534 2
533 573 1
534 535 1
534 574 4
535 536 2
535 575 4
536 537 5
536 576 3
537 538 5
537 577 3
538 539 2
538 578 3
539 540 1
539 579 2
540 541 4
540 580 4
541 542 5
541 581 5
542 543 2
542 582 4
543 544 2
543 583 3
544 545 3
544 584 4
545 546 5
545 585 2
546 547 4
546 586 4
547 548 3
547 587 2
548 549 2
548 588 5
549 550 2
549 589 5
550 551 4
550 590 5
551 552 1
551 591 1
552 553 5
552 592 3
553 554 3
553 593 3
554 555 3
554 594 3
555 556 2
555 595 4
556 557 1
556 596 4
557 558 5
557 597 3
558 559 5
558 598 4
559 560 5
559 599 2
560 600 5
561 562 5
561 601 2
562 563 1
562 602 5
563 564 4
563 603 4
564 565 4
564 604 5
565 566 2
565 605 3
566 567 2
566 606 2
567 568 1
567 607 3
568 569 1
568 608 3
569 570 2
569 609 2
570 571 2
570 610 2
571 572 4
571 611 3
572 573 3
572 612 3
573 574 3
573 613 1
574 575 1
574 614 2
575 576 2
575 615 2
576 577 2
576 616 1
577 578 1
577 617 3
578 579 2
578 618 1
579 580 2
579 619 4
580 581 2
580 620 3
581 582 3
581 621 3
582 583 3
582 622 3
583 584 2
583 623 3
584 585 1
584 624 1
585 586 3
585 625 4
586 587 3
586 626 3
587 588 3
587 627 5
588 589 3
588 628 2
589 590 5
589 629 1
590 591 3
590 630 1
591 592 1
591 631 3
592 593 2
592 632 5
593 594 5
593 633 1
594 595 5
594 634 2
595 596 5
595 635 4
596 597 5
596 636 1
597 598 2
597 637 4
598 599 3
598 638 3
599 600 2
599 639 2
600 640 4
601 602 2
601 641 1
602 603 2
602 642 5
603 604 3
603 643 5
604 605 1
604 644 3
605 606 1
605 645 5
606 607 1
606 646 3
607 608 3
607 647 4
608 609 1
608 648 5
609 610 5
609 649 5
610 611 2
610 650 4
611 612 3
611 651 1
612 613 5
612 652 3
613 614 3
613 653 3
614 615 5
614 654 2
615 616 1
615 655 4
616 617 2
616 656 4
617 618 5
617 657 4
618 619 1
618 658 3
619 620 1
619 659 1
620 621 4
620 660 4
621 622 5
621 661 4
622 623 1
622 662 4
623 624 4
623 663 5
624 625 1
624 664 4
625 626 3
625 665 3
626 627 3
626 666 3
627 628 3
627 667 3
628 629 5
628 668 5
629 630 1
629 669 3
630 631 4
630 670 4
631 632 3
631 671 1
632 633 2
632 672 2
633 634 3
633 673 4
634 635 1
634 674 5
635 636 4
635 675 4
636 637 1
636 676 1
637 638 3
637 677 5
638 639 1
638 678 1
639 640 3
639 679 4
640 680 3
641 642 5
641 681 1
642 643 2
642 682 1
643 644 3
643 683 2
644 645 3
644 684 1
645 646 2
645 685 2
646 647 5
646 686 4
647 648 5
647 687 5
648 649 1
648 688 1
649 650 4
649 689 2
650 651 2
650 690 4
651 652 2
651 691 2
652 653 2
652 692 1
653 654 1
653 693 2
654 655 3
654 694 3
655 656 4
655 695 5
656 657 3
656 696 5
657 658 4
657 697 5
658 659 2
658 698 5
659 660 4
659 699 1
660 661 4
660 700 5
661 662 5
661 701 3
662 663 3
662 702 5
663 664 1
663 703 2
664 665 4
664 704 2
665 666 4
665 705 3
666 667 1
666 706 5
667 668 3
667 707 3
668 669 3
668 708 3
669 670 2
669 709 3
670 671 1
670 710 4
671 672 2
671 711 3
672 673 2
672 712 3
673 674 4
673 713 4
674 675 3
674 714 4
675 676 2
675 715 3
676 677 4
676 716 1
677 678 3
677 717 4
678 679 5
678 718 3
679 680 3
679 719 4
680 720 2
681 682 5
681 721 1
682 683 5
682 722 5
683 684 1
683 723 3
684 685 1
684 724 3
685 686 2
685 725 1
686 687 3
686 726 1
687 688 4
687 727 1
688 689 2
688 728 2
689 690 4
689 729 5
690 691 1
690 730 3
691 692 2
691 731 5
692 693 5
692 732 1
693 694 4
693 733 1
694 695 2
694 734 1
695 696 4
695 735 3
696 697 3
696 736 5
697 698 5
697 737 3
698 699 2
698 738 4
699 700 4
699 739 1
700 701 4
700 740 4
701 702 4
701 741 4
702 703 5
702 742 2
703 704 4
703 743 4
704 705 1
704 744 2
705 706 4
705 745 1
706 707 4
706 746 4
707 708 5
707 747 2
708 709 4
708 748 3
709 710 1
709 749 5
710 711 5
710 750 1
711 712 5
711 751 2
712 713 2
712 752 4
713 714 1
713 753 4
714 715 3
714 754 2
715 716 4
715 755 5
716 717 4
716 756 1
717 718 4
717 757 3
718 719 2
718 758 2
719 720 5
719 759 4
720 760 1
721 722 4
721 761 5
722 723 2
722 762 3
723 724 5
723 763 1
724 725 2
724 764 2
725 726 4
725 765 5
726 727 5
726 766 3
727 728 5
727 767 5
728 729 1
728 768 3
729 730 2
729 769 1
730 731 3
730 770 5
731 732 4
731 771 5
732 733 5
732 772 3
733 734 2
733 773 3
734 735 3
734 774 5
735 736 1
735 775 4
736 737 4
736 776 2
737 738 2
737 777 1
738 739 1
738 778 4
739 740 5
739 779 4
740 741 1
740 780 3
741 742 4
741 781 5
742 743 4
742 782 3
743 744 1
743 783 2
744 745 1
744 784 5
745 746 1
745 785 5
746 747 1
746 786 1
747 748 1
747 787 4
748 749 5
748 788 1
749 750 3
749 789 3
750 751 1
750 790 4
751 752 5
751 791 5
752 753 1
752 792 1
753 754 2
753 793 5
754 755 5
754 794 3
755 756 1
755 795 5
756 757 4
756 796 5
757 758 3
757 797 5
758 759 1
758 798 1
759 760 3
759 799 1
760 800 3
761 762 5
761 801 5
762 763 1
762 802 3
763 764 5
763 803 5
764 765 1
764 804 4
765 766 5
765 805 3
766 767 1
766 806 1
767 768 2
767 807 4
768 769 3
768 808 2
769 770 2
769 809 2
770 771 4
770 810 5
771 772 2
771 811 2
772 773 3
772 812 5
773 774 4
773 813 1
774 775 2
774 814 5
775 776 2
775 815 5
776 777 1
776 816 1
777 778 2
777 817 5
778 779 1
778 818 2
779 780 1
779 819 4
780 781 5
780 820 1
781 782 3
781 821 2
782 783 4
782 822 5
783 784 4
783 823 1
784 785 4
784 824 4
785 786 2
785 825 1
786 787 1
786 826 5
787 788 4
787 827 1
788 789 5
788 828 1
789 790 2
789 829 4
790 791 5
790 830 2
791 792 5
791 831 2
792 793 4
792 832 5
793 794 4
793 833 5
794 795 2
794 834 1
795 796 5
795 835 1
796 797 1
796 836 4
797 798 2
797 837 1
798 799 3
798 838 2
799 800 5
799 839 4
800 840 5
801 802 5
801 841 5
802 803 4
802 842 1
803 804 3
803 843 3
804 805 5
804 844 2
805 806 2
805 845 4
806 807 4
806 846 5
807 808 3
807 847 4
808 809 4
808 848 3
809 810 2
809 849 2
810 811 2
810 850 4
811 812 2
811 851 5
812 813 1
812 852 5
813 814 4
813 853 2
814 815 4
814 854 4
815 816 3
815 855 4
816 817 1
816 856 5
817 818 3
817 857 2
818 819 1
818 858 1
819 820 5
819 859 2
820 821 2
820 860 4
821 822 2
821 861 2
822 823 4
822 862 4
823 824 3
823 863 2
824 825 3
824 864 2
825 826 1
825 865 3
826 827 4
826 866 2
827 828 4
827 867 1
828 829 5
828 868 2
829 830 1
829 869 4
830 831 3
830 870 3
831 832 2
831 871 2
832 833 4
832 872 2
833 834 3
833 873 1
834 835 1
834 874 1
835 836 1
835 875 3
836 837 5
836 876 3
837 838 4
837 877 3
838 839 2
838 878 1
839 840 2
839 879 3
840 880 4
841 842 4
841 881 2
842 843 4
842 882 5
843 844 5
843 883 1
844 845 5
844 884 1
845 846 3
845 885 5
846 847 5
846 886 5
847 848 1
847 887 3
848 849 5
848 888 5
849 850 2
849 889 2
850 851 3
850 890 1
851 852 1
851 891 1
852 853 3
852 892 4
853 854 2
853 893 5
854 855 4
854 894 5
855 856 5
855 895 5
856 857 5
856 896 5
857 858 4
857 897 4
858 859 3
858 898 4
859 860 1
859 899 2
860 861 1
860 900 2
861 862 1
861 901 4
862 863 5
862 902 4
863 864 5
863 903 5
864 865 1
864 904 5
865 866 2
865 905 3
866 867 1
866 906 3
867 868 4
867 907 3
868 869 3
868 908 3
869 870 1
869 909 1
870 871 5
870 910 3
871 872 3
871 911 4
872 873 5
872 912 4
873 874 2
873 913 3
874 875 1
874 914 1
875 876 5
875 915 2
876 877 3
876 916 3
877 878 3
877 917 3
878 879 1
878 918 1
879 880 3
879 919 2
880 920 5
881 882 3
881 921 1
882 883 3
882 922 4
883 884 3
883 923 5
884 885 4
884 924 2
885 886 3
885 925 3
886 887 3
886 926 1
887 888 4
887 927 1
888 889 5
888 928 2
889 890 5
889 929 3
890 891 3
890 930 5
891 892 4
891 931 2
892 893 4
892 932 5
893 894 2
893 933 2
894 895 4
894 934 4
895 896 1
895 935 2
896 897 5
896 936 1
897 898 1
897 937 3
898 899 1
898 938 1
899 900 5
899 939 3
900 901 1
900 940 5
901 902 4
901 941 3
902 903 2
902 942 1
903 904 1
903 943 3
904 905 1
904 944 5
905 906 2
905 945 2
906 907 1
906 946 1
907 908 2
907 947 4
908 909 4
908 948 3
909 910 3
909 949 3
910 911 2
910 950 3
911 912 5
911 951 4
912 913 4
912 952 2
913 914 2
913 953 5
914 915 4
914 954 5
915 916 2
915 955 2
916 917 2
916 956 3
917 918 2
917 957 5
918 919 3
918 958 5
919 920 4
919 959 4
920 960 3
921 922 2
921 961 2
922 923 5
922 962 4
923 924 5
923 963 1
924 925 2
924 964 2
925 926 2
925 965 1
926 927 3
926 966 4
927 928 4
927 967 3
928 929 3
928 968 4
929 930 4
929 969 2
930 931 1
930 970 2
931 932 3
931 971 3
932 933 5
932 972 5
933 934 3
933 973 2
934 935 2
934 974 4
935 936 1
935 975 2
936 937 4
936 976 5
937 938 5
937 977 2
938 939 1
938 978 4
939 940 2
939 979 1
940 941 2
940 980 3
941 942 2
941 981 1
942 943 3
942 982 3
943 944 3
943 983 1
944 945 4
944 984 2
945 946 1
945 985 1
946 947 3
946 986 3
947 948 4
947 987 2
948 949 2
948 988 4
949 950 5
949 989 5
950 951 2
950 990 4
951 952 3
951 991 5
952 953 4
952 992 5
953 954 4
953 993 2
954 955 5
954 994 5
955 956 2
955 995 1
956 957 1
956 996 1
957 958 3
957 997 4
958 959 1
958 998 3
959 960 4
959 999 4
960 1000 2
961 962 4
961 1001 2
962 963 4
962 1002 3
963 964 5
963 1003 1
964 965 4
964 1004 5
965 966 3
965 1005 2
966 967 1
966 1006 5
967 968 1
967 1007 5
968 969 5
968 1008 3
969 970 2
969 1009 3
970 971 1
970 1010 3
971 972 3
971 1011 3
972 973 5
972 1012 1
973 974 1
973 1013 3
974 975 5
974 1014 3
975 976 3
975 1015 1
976 977 2
976 1016 3
977 978 3
977 1017 1
978 979 4
978 1018 2
979 980 1
979 1019 3
980 981 5
980 1020 1
981 982 3
981 1021 1
982 983 3
982 1022 2
983 984 2
983 1023 1
984 985 4
984 1024 5
985 986 2
985 1025 2
986 987 2
986 1026 4
987 988 4
987 1027 4
988 989 3
988 1028 1
989 990 1
989 1029 3
990 991 1
990 1030 5
991 992 2
991 1031 3
992 993 1
992 1032 2
993 994 4
993 1033 5
994 995 2
994 1034 2
995 996 3
995 1035 4
996 997 1
996 1036 3
997 998 2
997 1037 1
998 999 5
998 1038 4
999 1000 4
999 1039 1
1000 1040 2
1001 1002 4
1001 1041 2
1002 1003 5
1002 1042 1
1003 1004 3
1003 1043 5
1004 1005 1
1004 1044 3
1005 1006 3
1005 1045 5
1006 1007 3
1006 1046 4
1007 1008 1
1007 1047 1
1008 1009 3
1008 1048 2
1009 1010 1
1009 1049 4
1010 1011 3
1010 1050 3
1011 1012 2
1011 1051 2
1012 1013 5
1012 1052 5
1013 1014 2
1013 1053 5
1014 1015 5
1014 1054 1
1015 1016 1
1015 1055 4
1016 1017 3
1016 1056 5
1017 1018 1
1017 1057 3
1018 1019 4
1018 1058 1
1019 1020 3
1019 1059 1
1020 1021 4
1020 1060 5
1021 1022 4
1021 1061 2
1022 1023 3
1022 1062 4
1023 1024 5
1023 1063 4
1024 1025 1
1024 1064 4
1025 1026 2
1025 1065 3
1026 1027 1
1026 1066 4
1027 1028 2
1027 1067 2
1028 1029 5
1028 1068 5
1029 1030 3
1029 1069 5
1030 1031 5
1030 1070 1
1031 1032 4
1031 1071 3
1032 1033 3
1032 1072 4
1033 1034 4
1033 1073 3
1034 1035 5
1034 1074 1
1035 1036 5
1035 1075 4
1036 1037 4
1036 1076 5
1037 1038 2
1037 1077 4
1038 1039 5
1038 1078 1
1039 1040 5
1039 1079 1
1040 1080 4
1041 1042 3
1041 1081 2
1042 1043 1
1042 1082 3
1043 1044 2
1043 1083 1
1044 1045 4
1044 1084 4
1045 1046 3
1045 1085 3
1046 1047 4
1046 1086 5
1047 1048 2
1047 1087 1
1048 1049 2
1048 1088 3
1049 1050 2
1049 1089 3
1050 1051 1
1050 1090 3
1051 1052 3
1051 1091 5
1052 1053 1
1052 1092 4
1053 1054 3
1053 1093 5
1054 1055 1
1054 1094 3
1055 1056 4
1055 1095 4
1056 1057 3
1056 1096 5
1057 1058 2
1057 1097 2
1058 1059 5
1058 1098 1
1059 1060 2
1059 1099 5
1060 1061 4
1060 1100 3
1061 1062 2
1061 1101 2
1062 1063 5
1062 1102 2
1063 1064 1
1063 1103 2
1064 1065 2
1064 1104 2
1065 1066 2
1065 1105 2
1066 1067 5
1066 1106 5
1067 1068 5
1067 1107 4
1068 1069 3
1068 1108 4
1069 1070 2
1069 1109 4
1070 1071 2
1070 1110 4
1071 1072 2
1071 1111 4
1072 1073 1
1072 1112 5
1073 1074 3
1073 1113 1
1074 1075 3
1074 1114 4
1075 1076 3
1075 1115 5
1076 1077 3
1076 1116 3
1077 1078 2
1077 1117 5
1078 1079 5
1078 1118 2
1079 1080 4
1079 1119 1
1080 1120 4
1081 1082 3
1081 1121 1
1082 1083 1
1082 1122 5
1083 1084 5
1083 1123 3
1084 1085 1
1084 1124 4
1085 1086 1
1085 1125 2
1086 1087 4
1086 1126 5
1087 1088 5
1087 1127 1
1088 1089 2
1088 1128 3
1089 1090 5
1089 1129 3
1090 1091 4
1090 1130 2
1091 1092 4
1091 1131 1
1092 1093 5
1092 1132 2
1093 1094 5
1093 1133 5
1094 1095 2
1094 1134 1
1095 1096 3
1095 1135 1
1096 1097 2
1096 1136 2
1097 1098 5
1097 1137 3
1098 1099 5
1098 1138 4
1099 1100 5
1099 1139 3
1100 1101 4
1100 1140 1
1101 1102 5
1101 1141 2
1102 1103 3
1102 1142 3
1103 1104 3
1103 1143 5
1104 1105 5
1104 1144 3
1105 1106 3
1105 1145 4
1106 1107 5
1106 1146 5
1107 1108 1
1107 1147 5
1108 1109 5
1108 1148 4
1109 1110 3
1109 1149 1
1110 1111 5
1110 1150 5
1111 1112 3
1111 1151 1
1112 1113 1
1112 1152 4
1113 1114 5
1113 1153 4
1114 1115 5
1114 1154 2
1115 1116 1
1115 1155 2
1116 1117 5
1116 1156 5
1117 1118 1
1117 1157 4
1118 1119 2
1118 1158 3
1119 1120 5
1119 1159 4
1120 1160 2
1121 1122 1
1121 1161 2
1122 1123 2
1122 1162 5
1123 1124 2
1123 1163 4
1124 1125 1
1124 1164 5
1125 1126 3
1125 1165 1
1126 1127 3
1126 1166 4
1127 1128 1
1127 1167 5
1128 1129 3
1128 1168 5
1129 1130 5
1129 1169 4
1130 1131 2
1130 1170 1
1131 1132 3
1131 1171 2
1132 1133 1
1132 1172 3
1133 1134 3
1133 1173 5
1134 1135 1
1134 1174 1
1135 1136 2
1135 1175 2
1136 1137 4
1136 1176 5
1137 1138 1
1137 1177 2
1138 1139 4
1138 1178 1
1139 1140 5
1139 1179 2
1140 1141 4
1140 1180 2
1141 1142 2
1141 1181 4
1142 1143 3
1142 1182 1
1143 1144 2
1143 1183 2
1144 1145 4
1144 1184 5
1145 1146 5
1145 1185 1
1146 1147 4
1146 1186 2
1147 1148 4
1147 1187 2
1148 1149 3
1148 1188 4
1149 1150 5
1149 1189 4
1150 1151 4
1150 1190 2
1151 1152 1
1151 1191 1
1152 1153 5
1152 1192 5
1153 1154 5
1153 1193 2
1154 1155 2
1154 1194 2
1155 1156 1
1155 1195 3
1156 1157 4
1156 1196 5
1157 1158 2
1157 1197 3
1158 1159 3
1158 1198 1
1159 1160 3
1159 1199 2
1160 1200 2
1161 1162 4
1161 1201 5
1162 1163 4
1162 1202 5
1163 1164 2
1163 1203 3
1164 1165 5
1164 1204 3
1165 1166 1
1165 1205 2
1166 1167 4
1166 1206 3
1167 1168 3
1167 1207 4
1168 1169 5
1168 1208 4
1169 1170 1
1169 1209 5
1170 1171 5
1170 1210 5
1171 1172 4
1171 1211 3
1172 1173 5
1172 1212 3
1173 1174 5
1173 1213 2
1174 1175 5
1174 1214 5
1175 1176 5
1175 1215 5
1176 1177 5
1176 1216 4
1177 1178 5
1177 1217 4
1178 1179 2
1178 1218 3
1179 1180 4
1179 1219 3
1180 1181 4
1180 1220 3
1181 1182 4
1181 1221 3
1182 1183 2
1182 1222 1
1183 1184 2
1183 1223 1
1184 1185 5
1184 1224 3
1185 1186 3
1185 1225 4
1186 1187 1
1186 1226 1
1187 1188 5
1187 1227 3
1188 1189 2
1188 1228 4
1189 1190 5
1189 1229 5
1190 1191 1
1190 1230 1
1191 1192 2
1191 1231 4
1192 1193 4
1192 1232 1
1193 1194 2
1193 1233 1
1194 1195 3
1194 1234 5
1195 1196 4
1195 1235 5
1196 1197 2
1196 1236 2
1197 1198 3
1197 1237 4
1198 1199 4
1198 1238 4
1199 1200 2
1199 1239 5
1200 1240 4
1201 1202 3
1201 1241 2
1202 1203 3
1202 1242 2
1203 1204 3
1203 1243 2
1204 1205 1
1204 1244 3
1205 1206 5
1205 1245 4
1206 1207 4
1206 1246 3
1207 1208 2
1207 1247 3
1208 1209 1
1208 1248 4
1209 1210 1
1209 1249 2
1210 1211 1
1210 1250 1
1211 1212 5
1211 1251 1
1212 1213 2
1212 1252 4
1213 1214 1
1213 1253 2
1214 1215 3
1214 1254 2
1215 1216 1
1215 1255 5
1216 1217 2
1216 1256 2
1217 1218 1
1217 1257 5
1218 1219 4
1218 1258 2
1219 1220 3
1219 1259 4
1220 1221 3
1220 1260 1
1221 1222 1
1221 1261 2
1222 1223 3
1222 1262 3
1223 1224 4
1223 1263 2
1224 1225 3
1224 1264 3
1225 1226 2
1225 1265 4
1226 1227 2
1226 1266 2
1227 1228 4
1227 1267 5
1228 1229 3
1228 1268 2
1229 1230 1
1229 1269 3
1230 1231 3
1230 1270 1
1231 1232 1
1231 1271 5
1232 1233 2
1232 1272 2
1233 1234 5
1233 1273 4
1234 1235 5
1234 1274 4
1235 1236 2
1235 1275 1
1236 1237 3
1236 1276 1
1237 1238 1
1237 1277 3
1238 1239 3
1238 1278 1
1239 1240 5
1239 1279 3
1240 1280 1
1241 1242 3
1241 1281 5
1242 1243 5
1242 1282 2
1243 1244 2
1243 1283 2
1244 1245 3
1244 1284 3
1245 1246 2
1245 1285 5
1246 1247 4
1246 1286 2
1247 1248 5
1247 1287 5
1248 1249 5
1248 1288 4
1249 1250 5
1249 1289 3
1250 1251 5
1250 1290 1
1251 1252 1
1251 1291 2
1252 1253 3
1252 1292 5
1253 1254 2
1253 1293 3
1254 1255 5
1254 1294 5
1255 1256 4
1255 1295 1
1256 1257 1
1256 1296 4
1257 1258 5
1257 1297 5
1258 1259 3
1258 1298 1
1259 1260 2
1259 1299 5
1260 1261 1
1260 1300 5
1261 1262 5
1261 1301 5
1262 1263 4
1262 1302 3
1263 1264 2
1263 1303 2
1264 1265 2
1264 1304 4
1265 1266 5
1265 1305 1
1266 1267 4
1266 1306 1
1267 1268 4
1267 1307 3
1268 1269 1
1268 1308 1
1269 1270 1
1269 1309 1
1270 1271 1
1270 1310 2
1271 1272 2
1271 1311 2
1272 1273 1
1272 1312 4
1273 1274 2
1273 1313 4
1274 1275 1
1274 1314 4
1275 1276 3
1275 1315 2
1276 1277 5
1276 1316 5
1277 1278 1
1277 1317 4
1278 1279 4
1278 1318 3
1279 1280 3
1279 1319 3
1280 1320 1
1281 1282 1
1281 1321 4
1282 1283 1
1282 1322 4
1283 1284 2
1283 1323 1
1284 1285 4
1284 1324 1
1285 1286 4
1285 1325 4
1286 1287 5
1286 1326 1
1287 1288 3
1287 1327 1
1288 1289 1
1288 1328 1
1289 1290 1
1289 1329 4
1290 1291 2
1290 1330 3
1291 1292 5
1291 1331 5
1292 1293 4
1292 1332 4
1293 1294 3
1293 1333 2
1294 1295 2
1294 1334 1
1295 1296 2
1295 1335 2
1296 1297 3
1296 1336 2
1297 1298 4
1297 1337 1
1298 1299 2
1298 1338 2
1299 1300 3
1299 1339 5
1300 1301 3
1300 1340 5
1301 1302 1
1301 1341 2
1302 1303 3
1302 1342 5
1303 1304 3
1303 1343 2
1304 1305 3
1304 1344 5
1305 1306 4
1305 1345 2
1306 1307 4
1306 1346 4
1307 1308 1
1307 1347 4
1308 1309 3
1308 1348 5
1309 1310 1
1309 1349 4
1310 1311 4
1310 1350 2
1311 1312 2
1311 1351 2
1312 1313 5
1312 1352 2
1313 1314 4
1313 1353 2
1314 1315 3
1314 1354 1
1315 1316 3
1315 1355 2
1316 1317 5
1316 1356 3
1317 1318 1
1317 1357 4
1318 1319 4
1318 1358 4
1319 1320 3
1319 1359 2
1320 1360 4
1321 1322 2
1321 1361 3
1322 1323 4
1322 1362 1
1323 1324 5
1323 1363 2
1324 1325 1
1324 1364 1
1325 1326 3
1325 1365 5
1326 1327 5
1326 1366 3
1327 1328 4
1327 1367 1
1328 1329 4
1328 1368 4
1329 1330 3
1329 1369 2
1330 1331 1
1330 1370 3
1331 1332 3
1331 1371 1
1332 1333 1
1332 1372 1
1333 1334 2
1333 1373 5
1334 1335 4
1334 1374 5
1335 1336 4
1335 1375 5
1336 1337 3
1336 1376 1
1337 1338 1
1337 1377 2
1338 1339 4
1338 1378 2
1339 1340 2
1339 1379 4
1340 1341 4
1340 1380 4
1341 1342 4
1341 1381 2
1342 1343 4
1342 1382 1
1343 1344 2
1343 1383 4
1344 1345 3
1344 1384 2
1345 1346 4
1345 1385 2
1346 1347 2
1346 1386 2
1347 1348 2
1347 1387 1
1348 1349 2
1348 1388 1
1349 1350 1
1349 1389 2
1350 1351 4
1350 1390 4
1351 1352 4
1351 1391 3
1352 1353 5
1352 1392 1
1353 1354 3
1353 1393 2
1354 1355 1
1354 1394 1
1355 1356 2
1355 1395 4
1356 1357 3
1356 1396 3
1357 1358 4
1357 1397 5
1358 1359 1
1358 1398 4
1359 1360 2
1359 1399 5
1360 1400 5
1361 1362 4
1361 1401 4
1362 1363 5
1362 1402 1
1363 1364 2
1363 1403 2
1364 1365 4
1364 1404 2
1365 1366 1
1365 1405 3
1366 1367 2
1366 1406 3
1367 1368 5
1367 1407 2
1368 1369 4
1368 1408 5
1369 1370 1
1369 1409 5
1370 1371 5
1370 1410 3
1371 1372 2
1371 1411 1
1372 1373 3
1372 1412 1
1373 1374 4
1373 1413 3
1374 1375 4
1374 1414 3
1375 1376 2
1375 1415 1
1376 1377 3
1376 1416 3
1377 1378 2
1377 1417 2
1378 1379 1
1378 1418 5
1379 1380 5
1379 1419 3
1380 1381 1
1380 1420 1
1381 1382 5
1381 1421 4
1382 1383 1
1382 1422 5
1383 1384 1
1383 1423 5
1384 1385 3
1384 1424 4
1385 1386 1
1385 1425 2
1386 1387 3
1386 1426 3
1387 1388 1
1387 1427 3
1388 1389 5
1388 1428 5
1389 1390 1
1389 1429 1
1390 1391 5
1390 1430 5
1391 1392 5
1391 1431 4
1392 1393 5
1392 1432 1
1393 1394 1
1393 1433 3
1394 1395 4
1394 1434 5
1395 1396 5
1395 1435 3
1396 1397 5
1396 1436 1
1397 1398 2
1397 1437 3
1398 1399 4
1398 1438 2
1399 1400 4
1399 1439 1
1400 1440 4
1401 1402 2
1401 1441 5
1402 1403 5
1402 1442 5
1403 1404 2
1403 1443 3
1404 1405 3
1404 1444 4
1405 1406 4
1405 1445 1
1406 1407 4
1406 1446 5
1407 1408 3
1407 1447 1
1408 1409 3
1408 1448 3
1409 1410 3
1409 1449 1
1410 1411 1
1410 1450 2
1411 1412 4
1411 1451 5
1412 1413 2
1412 1452 2
1413 1414 1
1413 1453 4
1414 1415 1
1414 1454 5
1415 1416 4
1415 1455 2
1416 1417 4
1416 1456 4
1417 1418 1
1417 1457 2
1418 1419 4
1418 1458 3
1419 1420 2
1419 1459 3
1420 1421 3
1420 1460 2
1421 1422 5
1421 1461 4
1422 1423 4
1422 1462 4
1423 1424 4
1423 1463 1
1424 1425 2
1424 1464 2
1425 1426 2
1425 1465 1
1426 1427 1
1426 1466 3
1427 1428 3
1427 1467 4
1428 1429 3
1428 1468 3
1429 1430 1
1429 1469 5
1430 1431 1
1430 1470 4
1431 1432 5
1431 1471 3
1432 1433 5
1432 1472 1
1433 1434 4
1433 1473 2
1434 1435 4
1434 1474 3
1435 1436 5
1435 1475 1
1436 1437 4
1436 1476 3
1437 1438 1
1437 1477 1
1438 1439 2
1438 1478 3
1439 1440 3
1439 1479 5
1440 1480 2
1441 1442 4
1441 1481 2
1442 1443 3
1442 1482 2
1443 1444 1
1443 1483 1
1444 1445 2
1444 1484 4
1445 1446 4
1445 1485 2
1446 1447 4
1446 1486 2
1447 1448 3
1447 1487 4
1448 1449 1
1448 1488 1
1449 1450 3
1449 1489 1
1450 1451 3
1450 1490 3
1451 1452 4
1451 1491 2
1452 1453 2
1452 1492 3
1453 1454 4
1453 1493 1
1454 1455 3
1454 1494 2
1455 1456 4
1455 1495 5
1456 1457 2
1456 1496 4
1457 1458 4
1457 1497 4
1458 1459 3
1458 1498 4
1459 1460 4
1459 1499 5
1460 1461 2
1460 1500 1
1461 1462 1
1461 1501 1
1462 1463 1
1462 1502 2
1463 1464 3
1463 1503 1
1464 1465 4
1464 1504 4
1465 1466 4
1465 1505 3
1466 1467 3
1466 1506 3
1467 1468 1
1467 1507 3
1468 1469 2
1468 1508 3
1469 1470 1
1469 1509 3
1470 1471 4
1470 1510 1
1471 1472 4
1471 1511 1
1472 1473 4
1472 1512 4
1473 1474 5
1473 1513 2
1474 1475 3
1474 1514 3
1475 1476 1
1475 1515 1
1476 1477 5
1476 1516 3
1477 1478 3
1477 1517 4
1478 1479 5
1478 1518 4
1479 1480 2
1479 1519 3
1480 1520 2
1481 1482 5
1481 1521 4
1482 1483 4
1482 1522 4
1483 1484 4
1483 1523 2
1484 1485 3
1484 1524 2
1485 1486 1
1485 1525 4
1486 1487 4
1486 1526 2
1487 1488 3
1487 1527 3
1488 1489 4
1488 1528 1
1489 1490 1
1489 1529 1
1490 1491 4
1490 1530 5
1491 1492 5
1491 1531 4
1492 1493 1
1492 1532 2
1493 1494 5
1493 1533 5
1494 1495 4
1494 1534 1
1495 1496 2
1495 1535 3
1496 1497 3
1496 1536 2
1497 1498 1
1497 1537 5
1498 1499 1
1498 1538 4
1499 1500 5
1499 1539 5
1500 1501 4
1500 1540 3
1501 1502 5
1501 1541 1
1502 1503 4
1502 1542 5
1503 1504 2
1503 1543 4
1504 1505 2
1504 1544 4
1505 1506 5
1505 1545 3
1506 1507 1
1506 1546 1
1507 1508 2
1507 1547 4
1508 1509 4
1508 1548 3
1509 1510 4
1509 1549 3
1510 1511 2
1510 1550 1
1511 1512 2
1511 1551 1
1512 1513 4
1512 1552 4
1513 1514 3
1513 1553 3
1514 1515 4
1514 1554 2
1515 1516 5
1515 1555 2
1516 1517 3
1516 1556 2
1517 1518 3
1517 1557 2
1518 1519 5
1518 1558 1
1519 1520 3
1519 1559 5
1520 1560 5
1521 1522 1
1521 1561 2
1522 1523 2
1522 1562 2
1523 1524 5
1523 1563 4
1524 1525 4
1524 1564 5
1525 1526 1
1525 1565 3
1526 1527 4
1526 1566 4
1527 1528 1
1527 1567 2
1528 1529 5
1528 1568 2
1529 1530 5
1529 1569 5
1530 1531 5
1530 1570 3
1531 1532 5
1531 1571 5
1532 1533 2
1532 1572 1
1533 1534 3
1533 1573 1
1534 1535 5
1534 1574 2
1535 1536 2
1535 1575 1
1536 1537 5
1536 1576 1
1537 1538 2
1537 1577 1
1538 1539 3
1538 1578 2
1539 1540 2
1539 1579 1
1540 1541 2
1540 1580 5
1541 1542 1
1541 1581 3
1542 1543 2
1542 1582 2
1543 1544 3
1543 1583 1
1544 1545 5
1544 1584 3
1545 1546 5
1545 1585 2
1546 1547 1
1546 1586 4
1547 1548 4
1547 1587 1
1548 1549 5
1548 1588 2
1549 1550 3
1549 1589 5
1550 1551 4
1550 1590 5
1551 1552 1
1551 1591 3
1552 1553 1
1552 1592 2
1553 1554 4
1553 1593 5
1554 1555 4
1554 1594 3
1555 1556 1
1555 1595 4
1556 1557 3
1556 1596 4
1557 1558 4
1557 1597 3
1558 1559 4
1558 1598 2
1559 1560 1
1559 1599 3
1560 1600 1
1561 1562 2
1562 1563 5
1563 1564 4
1564 1565 3
1565 1566 2
1566 1567 1
1567 1568 1
1568 1569 2
1569 1570 4
1570 1571 4
1571 1572 2
1572 1573 3
1573 1574 4
1574 1575 3
1575 1576 5
1576 1577 5
1577 1578 5
1578 1579 1
1579 1580 1
1580 1581 3
1581 1582 2
1582 1583 5
1583 1584 2
1584 1585 5
1585 1586 2
1586 1587 5
1587 1588 4
1588 1589 3
1589 1590 2
1590 1591 5
1591 1592 4
1592 1593 5
1593 1594 2
1594 1595 1
1595 1596 4
1596 1597 4
1597 1598 4
1598 1599 5
1599 1600 3
1 1561 4
2 1562 4
3 1563 1
4 1564 5
5 1565 1
6 1566 5
7 1567 1
8 1568 4
9 1569 3
10 1570 1
11 1571 4
12 1572 3
13 1573 1
14 1574 5
15 1575 5
16 1576 1
17 1577 1
18 1578 5
19 1579 3
20 1580 3
21 1581 3
22 1582 5
23 1583 3
24 1584 4
25 1585 4
26 1586 2
27 1587 3
28 1588 2
29 1589 5
30 1590 5
31 1591 3
32 1592 2
33 1593 2
34 1594 3
35 1595 2
36 1596 3
37 1597 4
38 1598 3
39 1599 2
40 1600 2
1 40 5
41 80 4
81 120 2
121 160 1
161 200 4
201 240 2
241 280 4
281 320 4
321 360 1
361 400 4
401 440 4
441 480 2
481 520 5
521 560 3
561 600 4
601 640 2
641 680 3
681 720 1
721 760 4
761 800 2
801 840 3
841 880 4
881 920 4
921 960 4
961 1000 1
1001 1040 4
1041 1080 3
1081 1120 2
1121 1160 3
1161 1200 1
1201 1240 5
1241 1280 3
1281 1320 2
1321 1360 5
1361 1400 1
1401 1440 5
1441 1480 3
1481 1520 1
1521 1560 3
1561 1600 1
